182 131 102 196 192 50 107 34 185 39 83 36 
169 49 136 198 22 55 194 174 8 60 1 67 175 
155 177 44 90 178 158 154 157 30 
163 28 47 172 130 58 71 121 115 11 13 120 
4 92 140 84 191 113 79 73 96 93 19 148 
153 162 63 62 5 26 25 77 186 70 66 64 
100 37 9 12 59 56 108 117 23 129 126 116 
142 179 180 43 3 183 51 111 95 81 
103 72 161 87 137 135 2 76 146 
57 40 45 85 94 151 109 86 91 193 75 
6 24 14 132 78 171 150 166 41 80 82 97 
88 199 118 105 21 123 17 141 
48 68 18 190 167 114 106 
147 128 99 168 160 52 74 
197 42 181 35 164 10 138 145 
200 16 98 119 110 33 
195 133 31 38 32 112 189 125 101 
156 15 124 159 46 122 
149 89 188 29 139 144 
54 173 143 187 134 
127 69 176 
7 152 61 
165 65 53 
170 104 20 
184 27 

